(declare-fun bvlambda_29_ () (_ BitVec 6))
(declare-fun a85 () (Array (_ BitVec 1) (_ BitVec 4)))
(assert
(let (($e7 (_ bv0 2)))
(let (($e329 (concat $e7 true        )))
(let (($e330 (concat $e329 false       )))
(let (($e362 (   extract        bvlambda_29_)))
(let (($e386 (store a85 true        $e330)))
(let (($e387 (select $e386 (not   $e362))))
             (   extract      $e387)
                                                                                                                                                                                                                                                                                                                                                                                                                                                                                                                                                                                                                                                                                                                                                                                                                                                                                                                                                                                                                                                                                                                                                                                      ))                       )                               ))                                                                                                                                                                                                                                                                                      )      )
